(set-logic FO)
(set-info :status unsat)
(declare-fun f (Term) Bool)
(declare-fun g (Term) Bool)
(declare-fun h (Term Term) Bool)
(declare-fun j (Term Term) Bool)
(assert (forall ((x Term)) (=> (and (f x) (forall ((y Term)) (=> (and (f y) (h y x)) (g y)))) (g x))))
(assert (exists ((x Term)) (=> (and (f x) (not (g x))) (exists ((x Term)) (and (f x) (and (not (g x)) (forall ((y Term)) (=> (and (f y) (not (g y))) (j x y)))))))))
(assert (forall ((x Term) (y Term)) (=> (and (f x) (and (f y) (h x y))) (not (j y x)))))
(assert (not (forall ((x Term)) (=> (f x) (g x)))))
(check-sat)
(exit)
